p cnf 134 487
-4 -2 0
-4 3 0
2 -3 4 0
4 5 -6 0
-4 -5 -6 0
4 -5 6 0
-4 5 6 0
-8 5 0
-8 7 0
-5 -7 8 0
2 8 -9 0
-2 -8 -9 0
2 -8 9 0
-2 8 9 0
10 11 -12 0
-10 -11 -12 0
10 -11 12 0
-10 11 12 0
15 -13 0
15 14 0
13 -14 -15 0
16 -12 0
16 15 0
12 -15 -16 0
-9 16 -17 0
9 -16 -17 0
-9 -16 17 0
9 16 17 0
18 17 0
18 7 0
-17 -7 -18 0
19 6 0
19 18 0
-6 -18 -19 0
20 -1 0
20 -19 0
1 19 -20 0
-22 14 0
-22 -21 0
-14 21 22 0
20 22 -23 0
-20 -22 -23 0
20 -22 23 0
-20 22 23 0
24 10 0
24 10 0
-10 -24 0
-25 4 0
-25 -24 0
-4 24 25 0
-8 -25 -26 0
8 25 -26 0
-8 25 26 0
8 -25 26 0
-26 10 -27 0
26 -10 -27 0
-26 -10 27 0
26 10 27 0
19 -27 -28 0
-19 27 -28 0
19 27 28 0
-19 -27 28 0
30 -13 0
30 29 0
13 -29 -30 0
31 -30 0
31 18 0
30 -18 -31 0
32 -31 0
32 -5 0
31 5 -32 0
-28 -32 -33 0
28 32 -33 0
-28 32 33 0
28 -32 33 0
23 33 -34 0
-23 -33 -34 0
23 -33 34 0
-23 33 34 0
-36 -7 0
-36 35 0
7 -35 36 0
-30 3 -37 0
30 -3 -37 0
-30 -3 37 0
30 3 37 0
38 36 0
38 37 0
-36 -37 -38 0
39 -25 0
39 -36 0
25 36 -39 0
-40 -24 0
-40 39 0
24 -39 40 0
42 -41 0
42 30 0
41 -30 -42 0
-2 -42 -43 0
2 42 -43 0
-2 42 43 0
2 -42 43 0
44 -40 0
44 43 0
40 -43 -44 0
-38 44 -45 0
38 -44 -45 0
-38 -44 45 0
38 44 45 0
46 36 0
46 2 0
-36 -2 -46 0
47 1 0
47 -46 0
-1 46 -47 0
-48 -45 0
-48 47 0
45 -47 48 0
-49 -30 0
-49 35 0
30 -35 49 0
50 -48 0
50 -49 0
48 49 -50 0
-51 34 0
-51 50 0
-34 -50 51 0
-2 -29 -53 0
2 29 -53 0
-2 29 53 0
2 -29 53 0
54 -52 0
54 53 0
52 -53 -54 0
-51 54 -55 0
51 -54 -55 0
-51 -54 55 0
51 54 55 0
-56 -14 0
-56 2 0
14 -2 56 0
-57 36 0
-57 56 0
-36 -56 57 0
58 55 0
58 57 0
-55 -57 -58 0
-59 40 0
-59 17 0
-40 -17 59 0
-60 3 0
-60 35 0
-3 -35 60 0
-61 -60 0
-61 -31 0
60 31 61 0
-62 16 0
-62 -61 0
-16 61 62 0
26 -41 -63 0
-26 41 -63 0
26 41 63 0
-26 -41 63 0
-64 -24 0
-64 -13 0
24 13 64 0
-65 63 0
-65 -64 0
-63 64 65 0
-66 -65 0
-66 -18 0
65 18 66 0
-67 43 0
-67 4 0
-43 -4 67 0
-68 16 0
-68 17 0
-16 -17 68 0
-69 67 0
-69 -68 0
-67 68 69 0
70 2 0
70 24 0
-2 -24 -70 0
71 -70 0
71 -29 0
70 29 -71 0
-71 24 -72 0
71 -24 -72 0
-71 -24 72 0
71 24 72 0
73 -69 0
73 72 0
69 -72 -73 0
-22 46 -74 0
22 -46 -74 0
-22 -46 74 0
22 46 74 0
75 -73 0
75 74 0
73 -74 -75 0
66 -75 -76 0
-66 75 -76 0
66 75 76 0
-66 -75 76 0
-77 -62 0
-77 -76 0
62 76 77 0
42 35 -78 0
-42 -35 -78 0
42 -35 78 0
-42 35 78 0
79 -78 0
79 4 0
78 -4 -79 0
-80 18 0
-80 -43 0
-18 43 80 0
81 -80 0
81 29 0
80 -29 -81 0
82 81 0
82 -5 0
-81 5 -82 0
-82 -60 -83 0
82 60 -83 0
-82 60 83 0
82 -60 83 0
-79 -83 -84 0
79 83 -84 0
-79 83 84 0
79 -83 84 0
10 -35 -85 0
-10 35 -85 0
10 35 85 0
-10 -35 85 0
85 37 -86 0
-85 -37 -86 0
85 -37 86 0
-85 37 86 0
84 86 -87 0
-84 -86 -87 0
84 -86 87 0
-84 86 87 0
-88 -77 0
-88 87 0
77 -87 88 0
-59 -88 -89 0
59 88 -89 0
-59 88 89 0
59 -88 89 0
-90 18 0
-90 -79 0
-18 79 90 0
91 3 0
91 -19 0
-3 19 -91 0
-92 -90 0
-92 -91 0
90 91 92 0
-89 -92 -93 0
89 92 -93 0
-89 92 93 0
89 -92 93 0
94 58 0
94 -93 0
-58 93 -94 0
5 64 -95 0
-5 -64 -95 0
5 -64 95 0
-5 64 95 0
-10 11 -96 0
10 -11 -96 0
-10 -11 96 0
10 11 96 0
-22 -83 -97 0
22 83 -97 0
-22 83 97 0
22 -83 97 0
-98 96 0
-98 97 0
-96 -97 98 0
-95 -98 -99 0
95 98 -99 0
-95 98 99 0
95 -98 99 0
-21 -96 -100 0
21 96 -100 0
-21 96 100 0
21 -96 100 0
-101 99 0
-101 100 0
-99 -100 101 0
102 20 0
102 19 0
-20 -19 -102 0
-11 -102 -103 0
11 102 -103 0
-11 102 103 0
11 -102 103 0
-104 -96 0
-104 71 0
96 -71 104 0
105 -103 0
105 -104 0
103 104 -105 0
21 82 -106 0
-21 -82 -106 0
21 -82 106 0
-21 82 106 0
-42 -9 -107 0
42 9 -107 0
-42 9 107 0
42 -9 107 0
-68 107 -108 0
68 -107 -108 0
-68 -107 108 0
68 107 108 0
39 25 -109 0
-39 -25 -109 0
39 -25 109 0
-39 25 109 0
110 -108 0
110 109 0
108 -109 -110 0
-111 106 0
-111 110 0
-106 -110 111 0
-5 -41 -112 0
5 41 -112 0
-5 41 112 0
5 -41 112 0
-113 111 0
-113 112 0
-111 -112 113 0
-71 -3 -114 0
71 3 -114 0
-71 3 114 0
71 -3 114 0
115 26 0
115 10 0
-26 -10 -115 0
16 115 -116 0
-16 -115 -116 0
16 -115 116 0
-16 115 116 0
117 116 0
117 -46 0
-116 46 -117 0
26 -117 -118 0
-26 117 -118 0
26 117 118 0
-26 -117 118 0
-119 -114 0
-119 118 0
114 -118 119 0
-120 113 0
-120 -119 0
-113 119 120 0
121 -105 0
121 -120 0
105 120 -121 0
101 121 -122 0
-101 -121 -122 0
101 -121 122 0
-101 121 122 0
-123 -94 0
-123 122 0
94 -122 123 0
-22 -124 0
22 -124 0
-125 22 0
-125 2 0
-22 -2 125 0
124 -125 -126 0
-124 125 -126 0
124 125 126 0
-124 -125 126 0
-127 85 0
-127 -96 0
-85 96 127 0
128 126 0
128 -127 0
-126 127 -128 0
15 -46 -129 0
-15 46 -129 0
15 46 129 0
-15 -46 129 0
130 -128 0
130 -129 0
128 129 -130 0
-131 56 0
-131 -30 0
-56 30 131 0
-132 131 0
-132 8 0
-131 -8 132 0
-130 132 -133 0
130 -132 -133 0
-130 -132 133 0
130 132 133 0
-123 -133 -134 0
123 133 -134 0
-123 133 134 0
123 -133 134 0
-81 15 67 -73 -117 124 0
83 -8 -6 112 -128 0
-13 -23 0
72 -105 19 0
58 -45 51 28 0
51 38 66 0
111 -73 0
66 121 112 0
9 85 -93 102 -87 0
-37 -21 81 -26 0
93 48 -50 -41 -75 0
124 22 0
57 -43 -116 72 -114 0
115 113 16 -96 7 105 0
-87 -17 -114 115 -123 0
101 104 5 -95 0
40 -4 -121 -73 0
-14 11 41 -95 104 -26 0
75 -23 22 -16 0
133 -53 -26 -55 -69 132 0
62 49 31 0
-125 62 -89 9 -82 111 0
-132 0
-116 2 -87 0
-13 92 -87 40 0
-120 96 -90 25 -86 0
-128 -88 38 0
-124 -110 64 -104 11 0
1 78 134 67 119 0
-44 -34 83 -92 107 32 0
36 -108 95 -62 70 -78 0
72 33 -71 0
15 78 -101 108 -83 112 0
-72 21 -79 4 84 -61 0
-36 109 0
-35 -116 130 -94 0
85 87 58 -49 76 0
-33 -53 0
116 21 -35 -55 100 0
85 13 0
69 -48 -44 -27 -33 116 0
-40 -64 0
91 80 3 0
-127 122 0
-44 113 -74 98 -96 -53 0
19 3 112 7 -120 0
-73 113 81 107 0
48 119 33 -93 71 0
40 133 19 0
18 35 -107 0
35 -45 -17 -102 0
59 -79 100 46 47 -68 0
-50 -19 -95 -66 -96 69 0
59 -9 -21 99 -31 -7 0
-74 50 36 -128 0
-2 99 -92 -59 -8 0
55 21 -110 -59 -1 0
-71 4 123 52 0
-50 37 -16 0
107 91 -27 0
-49 47 93 -77 0
109 -15 -48 -132 79 0
-40 -10 -125 17 0
-123 -131 14 -25 0
22 59 0
-17 -8 0
-34 120 0
78 -28 0
112 -27 -120 -50 0
121 -51 -128 0
-42 -8 -116 28 0
19 -75 113 52 0
-16 -107 -103 -36 -131 0
-47 -134 -122 0
-87 -13 66 0
69 42 50 -15 -92 -72 0
34 126 -113 -91 -12 0
92 119 70 0
-102 132 0
8 -42 -126 -59 4 0
-127 120 0
134 0
